c description: Random 3-CNF over 19 variables and 81 clauses
c generator: CNFgen (0.9.2)
c copyright: (C) 2012-2022 Massimo Lauria <massimo.lauria@uniroma1.it>
c url: https://massimolauria.net/cnfgen
c command line: cnfgen --output CNF_4.28/19_bit_81_163.cnf randkcnf 3 19 81
c
p cnf 19 81
4 5 19 0
7 13 -17 0
3 9 15 0
11 16 18 0
-6 -17 -19 0
2 -11 -17 0
-3 -13 -19 0
3 -5 -14 0
-15 -16 -18 0
-12 14 19 0
-9 -11 16 0
3 4 15 0
-2 5 17 0
1 2 15 0
-2 -10 18 0
5 12 16 0
-5 -7 -14 0
-6 7 -11 0
7 -11 -19 0
-5 6 -16 0
2 5 8 0
1 5 -6 0
2 -9 11 0
-3 5 -11 0
4 15 16 0
-2 11 14 0
-1 8 -19 0
3 6 15 0
3 7 -11 0
-1 -7 -13 0
-2 4 -11 0
-2 -13 -17 0
-1 -8 -17 0
-1 14 19 0
-1 5 -9 0
2 -4 6 0
3 6 -14 0
-6 -7 13 0
-4 -12 17 0
-11 -15 16 0
-3 6 -13 0
-5 12 -18 0
4 -11 15 0
8 11 -14 0
1 6 17 0
1 13 15 0
-4 9 10 0
1 11 13 0
10 -18 -19 0
5 -11 16 0
2 -5 8 0
-2 5 -9 0
-8 -9 15 0
4 -9 -12 0
-3 -8 19 0
1 6 16 0
-2 6 17 0
-1 5 19 0
-5 11 -14 0
-13 -15 -16 0
14 -16 18 0
12 18 19 0
6 13 15 0
2 4 18 0
-3 6 -19 0
3 12 -13 0
-3 6 -16 0
-5 8 -15 0
-1 4 7 0
7 -15 17 0
-1 14 16 0
4 9 -13 0
-2 14 -18 0
2 16 19 0
4 5 9 0
1 11 18 0
-7 -11 -14 0
2 -14 -15 0
4 -17 -19 0
7 8 -12 0
1 6 -9 0
